
  17    0


   0  10 2 3 4 5 6 7 8 14 15 16 
   6   3 13 11 10 
   4   2 10 9 
   8   1 12 
   4   1 11 
   6   1 10 
   1   1 9 
   6   1 9 
   1   1 17
   1   1 17
   5   1 17
   6   1 17
   1   1 17
   6   1 17
   3   1 17
  10   1 17
   0   0 
